(set-logic QF_S)
(declare-fun var_0xINPUT_221404 () String)
(assert (and (= (len var_0xINPUT_221404) 0) (= (len var_0xINPUT_221404) 0) (not (= var_0xINPUT_221404 "3s71lxYG6e"))))
(check-sat var_0xINPUT_221404)